Minimize
	value: tt

Subject to
tt + 500 s_1_1 > 0
tt - t_1_1 - 503.000000 s_1_1 + 3.000000 s_1_6 > -484.075600
tt + 500 s_2_1 > 0
tt - t_2_1 - 503.000000 s_2_1 + 3.000000 s_2_6 > -483.947000
tt + 500 s_1_2 > 0
tt - t_1_2 - 503.000000 s_1_2 + 3.000000 s_1_7 > -482.669556
tt + 500 s_2_2 > 0
tt - t_2_2 - 503.000000 s_2_2 + 3.000000 s_2_7 > -482.923000
tt + 500 s_1_3 > 0
tt - t_1_3 - 503.000000 s_1_3 + 3.000000 s_1_7 > -471.526311
tt + 500 s_2_3 > 0
tt - t_2_3 - 503.000000 s_2_3 + 3.000000 s_2_7 > -475.848000
tt + 500 s_1_4 > 0
tt - t_1_4 - 512.000000 s_1_4 + 12.000000 s_1_3 > -485.687456
tt + 500 s_2_4 > 0
tt - t_2_4 - 512.000000 s_2_4 + 12.000000 s_2_3 > -486.126000
tt + 500 s_1_5 > 0
tt - t_1_5 - 512.000000 s_1_5 + 12.000000 s_1_6 > -478.996522
tt + 500 s_2_5 > 0
tt - t_2_5 - 512.000000 s_2_5 + 12.000000 s_2_6 > -482.879000
tt + 500 s_1_6 > 0
tt - t_1_6 - 500.000000 s_1_6 > -428.020600
tt + 500 s_2_6 > 0
tt - t_2_6 - 500.000000 s_2_6 > -479.132000
tt + 500 s_1_7 > 0
tt - t_1_7 - 500.000000 s_1_7 > -428.487400
tt + 500 s_2_7 > 0
tt - t_2_7 - 500.000000 s_2_7 > -478.479000
tt + 500 s_1_8 > 0
tt - t_1_8 - 575.000000 s_1_8 + 75.000000 s_1_3 > -499.335200
tt + 500 s_2_8 > 0
tt - t_2_8 - 575.000000 s_2_8 + 75.000000 s_2_3 > -493.757000
s_1_1 + s_2_1  = 1
s_1_2 + s_2_2  = 1
s_1_3 + s_2_3  = 1
s_1_4 + s_2_4  = 1
s_1_5 + s_2_5  = 1
s_1_6 + s_2_6  = 1
s_1_7 + s_2_7  = 1
s_1_8 + s_2_8  = 1
t_1_1 - t_1_2 + 500.000000 u_1_1_2 - 3.000000 s_1_2 + 3.000000 s_1_7 > 17.330444
t_1_2 - t_1_1 - 500.000000 u_1_1_2 > -484.075600
t_2_1 - t_2_2 + 500.000000 u_2_1_2 - 3.000000 s_2_2 + 3.000000 s_2_7 > 17.077000
t_2_2 - t_2_1 - 500.000000 u_2_1_2 > -483.947000
t_1_1 - t_1_3 + 500.000000 u_1_1_3 - 3.000000 s_1_3 + 3.000000 s_1_7 > 28.473689
t_1_3 - t_1_1 - 500.000000 u_1_1_3 > -484.075600
t_2_1 - t_2_3 + 500.000000 u_2_1_3 - 3.000000 s_2_3 + 3.000000 s_2_7 > 24.152000
t_2_3 - t_2_1 - 500.000000 u_2_1_3 > -483.947000
t_1_1 - t_1_4 + 500.000000 u_1_1_4 - 6.000000 s_1_4 + 6.000000 s_1_3 > 14.312544
t_1_4 - t_1_1 - 500.000000 u_1_1_4 > -484.075600
t_2_1 - t_2_4 + 500.000000 u_2_1_4 - 6.000000 s_2_4 + 6.000000 s_2_3 > 13.874000
t_2_4 - t_2_1 - 500.000000 u_2_1_4 > -483.947000
t_1_1 - t_1_5 + 500.000000 u_1_1_5 - 6.000000 s_1_5 + 6.000000 s_1_6 > 21.003478
t_1_5 - t_1_1 - 500.000000 u_1_1_5 > -484.075600
t_2_1 - t_2_5 + 500.000000 u_2_1_5 - 6.000000 s_2_5 + 6.000000 s_2_6 > 17.121000
t_2_5 - t_2_1 - 500.000000 u_2_1_5 > -483.947000
t_1_1 - t_1_6 - 500.000000 s_1_6 > -425.020600
t_1_1 - t_2_6 - 500.000000 s_2_6 > -476.132000
t_2_1 - t_1_6 - 500.000000 s_1_6 > -425.020600
t_2_1 - t_2_6 - 500.000000 s_2_6 > -476.132000
t_1_1 - t_1_7 + 500.000000 u_1_1_7 > 71.512600
t_1_7 - t_1_1 - 500.000000 u_1_1_7 > -484.075600
t_2_1 - t_2_7 + 500.000000 u_2_1_7 > 21.521000
t_2_7 - t_2_1 - 500.000000 u_2_1_7 > -483.947000
t_1_8 - t_1_1 - 500.000000 s_1_1 > -481.075600
t_1_8 - t_2_1 - 500.000000 s_2_1 > -480.947000
t_2_8 - t_1_1 - 500.000000 s_1_1 > -481.075600
t_2_8 - t_2_1 - 500.000000 s_2_1 > -480.947000
t_1_2 - t_1_1 + 500.000000 u_1_2_1 - 3.000000 s_1_1 + 3.000000 s_1_6 > 15.924400
t_1_1 - t_1_2 - 500.000000 u_1_2_1 > -482.669556
t_2_2 - t_2_1 + 500.000000 u_2_2_1 - 3.000000 s_2_1 + 3.000000 s_2_6 > 16.053000
t_2_1 - t_2_2 - 500.000000 u_2_2_1 > -482.923000
t_1_2 - t_1_3 + 500.000000 u_1_2_3 - 3.000000 s_1_3 + 3.000000 s_1_7 > 28.473689
t_1_3 - t_1_2 - 500.000000 u_1_2_3 > -482.669556
t_2_2 - t_2_3 + 500.000000 u_2_2_3 - 3.000000 s_2_3 + 3.000000 s_2_7 > 24.152000
t_2_3 - t_2_2 - 500.000000 u_2_2_3 > -482.923000
t_1_2 - t_1_4 + 500.000000 u_1_2_4 - 6.000000 s_1_4 + 6.000000 s_1_3 > 14.312544
t_1_4 - t_1_2 - 500.000000 u_1_2_4 > -482.669556
t_2_2 - t_2_4 + 500.000000 u_2_2_4 - 6.000000 s_2_4 + 6.000000 s_2_3 > 13.874000
t_2_4 - t_2_2 - 500.000000 u_2_2_4 > -482.923000
t_1_2 - t_1_5 + 500.000000 u_1_2_5 - 6.000000 s_1_5 + 6.000000 s_1_6 > 21.003478
t_1_5 - t_1_2 - 500.000000 u_1_2_5 > -482.669556
t_2_2 - t_2_5 + 500.000000 u_2_2_5 - 6.000000 s_2_5 + 6.000000 s_2_6 > 17.121000
t_2_5 - t_2_2 - 500.000000 u_2_2_5 > -482.923000
t_1_2 - t_1_6 + 500.000000 u_1_2_6 > 71.979400
t_1_6 - t_1_2 - 500.000000 u_1_2_6 > -482.669556
t_2_2 - t_2_6 + 500.000000 u_2_2_6 > 20.868000
t_2_6 - t_2_2 - 500.000000 u_2_2_6 > -482.923000
t_1_2 - t_1_7 - 500.000000 s_1_7 > -425.487400
t_1_2 - t_2_7 - 500.000000 s_2_7 > -475.479000
t_2_2 - t_1_7 - 500.000000 s_1_7 > -425.487400
t_2_2 - t_2_7 - 500.000000 s_2_7 > -475.479000
t_1_8 - t_1_2 - 500.000000 s_1_2 > -479.669556
t_1_8 - t_2_2 - 500.000000 s_2_2 > -479.923000
t_2_8 - t_1_2 - 500.000000 s_1_2 > -479.669556
t_2_8 - t_2_2 - 500.000000 s_2_2 > -479.923000
t_1_3 - t_1_1 + 500.000000 u_1_3_1 - 3.000000 s_1_1 + 3.000000 s_1_6 > 15.924400
t_1_1 - t_1_3 - 500.000000 u_1_3_1 > -471.526311
t_2_3 - t_2_1 + 500.000000 u_2_3_1 - 3.000000 s_2_1 + 3.000000 s_2_6 > 16.053000
t_2_1 - t_2_3 - 500.000000 u_2_3_1 > -475.848000
t_1_3 - t_1_2 + 500.000000 u_1_3_2 - 3.000000 s_1_2 + 3.000000 s_1_7 > 17.330444
t_1_2 - t_1_3 - 500.000000 u_1_3_2 > -471.526311
t_2_3 - t_2_2 + 500.000000 u_2_3_2 - 3.000000 s_2_2 + 3.000000 s_2_7 > 17.077000
t_2_2 - t_2_3 - 500.000000 u_2_3_2 > -475.848000
t_1_4 - t_1_3 - 500.000000 s_1_3 > -468.526311
t_1_4 - t_2_3 - 500.000000 s_2_3 > -472.848000
t_2_4 - t_1_3 - 500.000000 s_1_3 > -468.526311
t_2_4 - t_2_3 - 500.000000 s_2_3 > -472.848000
t_1_3 - t_1_5 + 500.000000 u_1_3_5 - 6.000000 s_1_5 + 6.000000 s_1_6 > 21.003478
t_1_5 - t_1_3 - 500.000000 u_1_3_5 > -471.526311
t_2_3 - t_2_5 + 500.000000 u_2_3_5 - 6.000000 s_2_5 + 6.000000 s_2_6 > 17.121000
t_2_5 - t_2_3 - 500.000000 u_2_3_5 > -475.848000
t_1_3 - t_1_6 + 500.000000 u_1_3_6 > 71.979400
t_1_6 - t_1_3 - 500.000000 u_1_3_6 > -471.526311
t_2_3 - t_2_6 + 500.000000 u_2_3_6 > 20.868000
t_2_6 - t_2_3 - 500.000000 u_2_3_6 > -475.848000
t_1_3 - t_1_7 - 500.000000 s_1_7 > -425.487400
t_1_3 - t_2_7 - 500.000000 s_2_7 > -475.479000
t_2_3 - t_1_7 - 500.000000 s_1_7 > -425.487400
t_2_3 - t_2_7 - 500.000000 s_2_7 > -475.479000
t_1_8 - t_1_3 - 500.000000 s_1_3 > -468.526311
t_1_8 - t_2_3 - 500.000000 s_2_3 > -472.848000
t_2_8 - t_1_3 - 500.000000 s_1_3 > -468.526311
t_2_8 - t_2_3 - 500.000000 s_2_3 > -472.848000
t_1_4 - t_1_1 + 500.000000 u_1_4_1 - 3.000000 s_1_1 + 3.000000 s_1_6 > 15.924400
t_1_1 - t_1_4 - 500.000000 u_1_4_1 > -485.687456
t_2_4 - t_2_1 + 500.000000 u_2_4_1 - 3.000000 s_2_1 + 3.000000 s_2_6 > 16.053000
t_2_1 - t_2_4 - 500.000000 u_2_4_1 > -486.126000
t_1_4 - t_1_2 + 500.000000 u_1_4_2 - 3.000000 s_1_2 + 3.000000 s_1_7 > 17.330444
t_1_2 - t_1_4 - 500.000000 u_1_4_2 > -485.687456
t_2_4 - t_2_2 + 500.000000 u_2_4_2 - 3.000000 s_2_2 + 3.000000 s_2_7 > 17.077000
t_2_2 - t_2_4 - 500.000000 u_2_4_2 > -486.126000
t_1_4 - t_1_3 - 500.000000 s_1_3 > -468.526311
t_1_4 - t_2_3 - 500.000000 s_2_3 > -472.848000
t_2_4 - t_1_3 - 500.000000 s_1_3 > -468.526311
t_2_4 - t_2_3 - 500.000000 s_2_3 > -472.848000
t_1_4 - t_1_5 + 500.000000 u_1_4_5 - 6.000000 s_1_5 + 6.000000 s_1_6 > 21.003478
t_1_5 - t_1_4 - 500.000000 u_1_4_5 > -485.687456
t_2_4 - t_2_5 + 500.000000 u_2_4_5 - 6.000000 s_2_5 + 6.000000 s_2_6 > 17.121000
t_2_5 - t_2_4 - 500.000000 u_2_4_5 > -486.126000
t_1_4 - t_1_6 + 500.000000 u_1_4_6 > 71.979400
t_1_6 - t_1_4 - 500.000000 u_1_4_6 > -485.687456
t_2_4 - t_2_6 + 500.000000 u_2_4_6 > 20.868000
t_2_6 - t_2_4 - 500.000000 u_2_4_6 > -486.126000
t_1_4 - t_1_7 - 500.000000 s_1_7 > -425.487400
t_1_4 - t_2_7 - 500.000000 s_2_7 > -475.479000
t_2_4 - t_1_7 - 500.000000 s_1_7 > -425.487400
t_2_4 - t_2_7 - 500.000000 s_2_7 > -475.479000
t_1_8 - t_1_4 - 500.000000 s_1_4 > -479.687456
t_1_8 - t_2_4 - 500.000000 s_2_4 > -480.126000
t_2_8 - t_1_4 - 500.000000 s_1_4 > -479.687456
t_2_8 - t_2_4 - 500.000000 s_2_4 > -480.126000
t_1_5 - t_1_1 + 500.000000 u_1_5_1 - 3.000000 s_1_1 + 3.000000 s_1_6 > 15.924400
t_1_1 - t_1_5 - 500.000000 u_1_5_1 > -478.996522
t_2_5 - t_2_1 + 500.000000 u_2_5_1 - 3.000000 s_2_1 + 3.000000 s_2_6 > 16.053000
t_2_1 - t_2_5 - 500.000000 u_2_5_1 > -482.879000
t_1_5 - t_1_2 + 500.000000 u_1_5_2 - 3.000000 s_1_2 + 3.000000 s_1_7 > 17.330444
t_1_2 - t_1_5 - 500.000000 u_1_5_2 > -478.996522
t_2_5 - t_2_2 + 500.000000 u_2_5_2 - 3.000000 s_2_2 + 3.000000 s_2_7 > 17.077000
t_2_2 - t_2_5 - 500.000000 u_2_5_2 > -482.879000
t_1_5 - t_1_3 + 500.000000 u_1_5_3 - 3.000000 s_1_3 + 3.000000 s_1_7 > 28.473689
t_1_3 - t_1_5 - 500.000000 u_1_5_3 > -478.996522
t_2_5 - t_2_3 + 500.000000 u_2_5_3 - 3.000000 s_2_3 + 3.000000 s_2_7 > 24.152000
t_2_3 - t_2_5 - 500.000000 u_2_5_3 > -482.879000
t_1_5 - t_1_4 + 500.000000 u_1_5_4 - 6.000000 s_1_4 + 6.000000 s_1_3 > 14.312544
t_1_4 - t_1_5 - 500.000000 u_1_5_4 > -478.996522
t_2_5 - t_2_4 + 500.000000 u_2_5_4 - 6.000000 s_2_4 + 6.000000 s_2_3 > 13.874000
t_2_4 - t_2_5 - 500.000000 u_2_5_4 > -482.879000
t_1_5 - t_1_6 - 500.000000 s_1_6 > -425.020600
t_1_5 - t_2_6 - 500.000000 s_2_6 > -476.132000
t_2_5 - t_1_6 - 500.000000 s_1_6 > -425.020600
t_2_5 - t_2_6 - 500.000000 s_2_6 > -476.132000
t_1_5 - t_1_7 - 500.000000 s_1_7 > -425.487400
t_1_5 - t_2_7 - 500.000000 s_2_7 > -475.479000
t_2_5 - t_1_7 - 500.000000 s_1_7 > -425.487400
t_2_5 - t_2_7 - 500.000000 s_2_7 > -475.479000
t_1_8 - t_1_5 - 500.000000 s_1_5 > -472.996522
t_1_8 - t_2_5 - 500.000000 s_2_5 > -476.879000
t_2_8 - t_1_5 - 500.000000 s_1_5 > -472.996522
t_2_8 - t_2_5 - 500.000000 s_2_5 > -476.879000
t_1_1 - t_1_6 - 500.000000 s_1_6 > -425.020600
t_1_1 - t_2_6 - 500.000000 s_2_6 > -476.132000
t_2_1 - t_1_6 - 500.000000 s_1_6 > -425.020600
t_2_1 - t_2_6 - 500.000000 s_2_6 > -476.132000
t_1_6 - t_1_2 + 500.000000 u_1_6_2 - 3.000000 s_1_2 + 3.000000 s_1_7 > 17.330444
t_1_2 - t_1_6 - 500.000000 u_1_6_2 > -428.020600
t_2_6 - t_2_2 + 500.000000 u_2_6_2 - 3.000000 s_2_2 + 3.000000 s_2_7 > 17.077000
t_2_2 - t_2_6 - 500.000000 u_2_6_2 > -479.132000
t_1_6 - t_1_3 + 500.000000 u_1_6_3 - 3.000000 s_1_3 + 3.000000 s_1_7 > 28.473689
t_1_3 - t_1_6 - 500.000000 u_1_6_3 > -428.020600
t_2_6 - t_2_3 + 500.000000 u_2_6_3 - 3.000000 s_2_3 + 3.000000 s_2_7 > 24.152000
t_2_3 - t_2_6 - 500.000000 u_2_6_3 > -479.132000
t_1_6 - t_1_4 + 500.000000 u_1_6_4 - 6.000000 s_1_4 + 6.000000 s_1_3 > 14.312544
t_1_4 - t_1_6 - 500.000000 u_1_6_4 > -428.020600
t_2_6 - t_2_4 + 500.000000 u_2_6_4 - 6.000000 s_2_4 + 6.000000 s_2_3 > 13.874000
t_2_4 - t_2_6 - 500.000000 u_2_6_4 > -479.132000
t_1_5 - t_1_6 - 500.000000 s_1_6 > -425.020600
t_1_5 - t_2_6 - 500.000000 s_2_6 > -476.132000
t_2_5 - t_1_6 - 500.000000 s_1_6 > -425.020600
t_2_5 - t_2_6 - 500.000000 s_2_6 > -476.132000
t_1_6 - t_1_7 + 500.000000 u_1_6_7 > 71.512600
t_1_7 - t_1_6 - 500.000000 u_1_6_7 > -428.020600
t_2_6 - t_2_7 + 500.000000 u_2_6_7 > 21.521000
t_2_7 - t_2_6 - 500.000000 u_2_6_7 > -479.132000
t_1_7 - t_1_1 + 500.000000 u_1_7_1 - 3.000000 s_1_1 + 3.000000 s_1_6 > 15.924400
t_1_1 - t_1_7 - 500.000000 u_1_7_1 > -428.487400
t_2_7 - t_2_1 + 500.000000 u_2_7_1 - 3.000000 s_2_1 + 3.000000 s_2_6 > 16.053000
t_2_1 - t_2_7 - 500.000000 u_2_7_1 > -478.479000
t_1_2 - t_1_7 - 500.000000 s_1_7 > -425.487400
t_1_2 - t_2_7 - 500.000000 s_2_7 > -475.479000
t_2_2 - t_1_7 - 500.000000 s_1_7 > -425.487400
t_2_2 - t_2_7 - 500.000000 s_2_7 > -475.479000
t_1_3 - t_1_7 - 500.000000 s_1_7 > -425.487400
t_1_3 - t_2_7 - 500.000000 s_2_7 > -475.479000
t_2_3 - t_1_7 - 500.000000 s_1_7 > -425.487400
t_2_3 - t_2_7 - 500.000000 s_2_7 > -475.479000
t_1_4 - t_1_7 - 500.000000 s_1_7 > -425.487400
t_1_4 - t_2_7 - 500.000000 s_2_7 > -475.479000
t_2_4 - t_1_7 - 500.000000 s_1_7 > -425.487400
t_2_4 - t_2_7 - 500.000000 s_2_7 > -475.479000
t_1_5 - t_1_7 - 500.000000 s_1_7 > -425.487400
t_1_5 - t_2_7 - 500.000000 s_2_7 > -475.479000
t_2_5 - t_1_7 - 500.000000 s_1_7 > -425.487400
t_2_5 - t_2_7 - 500.000000 s_2_7 > -475.479000
t_1_7 - t_1_6 + 500.000000 u_1_7_6 > 71.979400
t_1_6 - t_1_7 - 500.000000 u_1_7_6 > -428.487400
t_2_7 - t_2_6 + 500.000000 u_2_7_6 > 20.868000
t_2_6 - t_2_7 - 500.000000 u_2_7_6 > -478.479000
t_1_8 - t_1_1 - 500.000000 s_1_1 > -481.075600
t_1_8 - t_2_1 - 500.000000 s_2_1 > -480.947000
t_2_8 - t_1_1 - 500.000000 s_1_1 > -481.075600
t_2_8 - t_2_1 - 500.000000 s_2_1 > -480.947000
t_1_8 - t_1_2 - 500.000000 s_1_2 > -479.669556
t_1_8 - t_2_2 - 500.000000 s_2_2 > -479.923000
t_2_8 - t_1_2 - 500.000000 s_1_2 > -479.669556
t_2_8 - t_2_2 - 500.000000 s_2_2 > -479.923000
t_1_8 - t_1_3 - 500.000000 s_1_3 > -468.526311
t_1_8 - t_2_3 - 500.000000 s_2_3 > -472.848000
t_2_8 - t_1_3 - 500.000000 s_1_3 > -468.526311
t_2_8 - t_2_3 - 500.000000 s_2_3 > -472.848000
t_1_8 - t_1_4 - 500.000000 s_1_4 > -479.687456
t_1_8 - t_2_4 - 500.000000 s_2_4 > -480.126000
t_2_8 - t_1_4 - 500.000000 s_1_4 > -479.687456
t_2_8 - t_2_4 - 500.000000 s_2_4 > -480.126000
t_1_8 - t_1_5 - 500.000000 s_1_5 > -472.996522
t_1_8 - t_2_5 - 500.000000 s_2_5 > -476.879000
t_2_8 - t_1_5 - 500.000000 s_1_5 > -472.996522
t_2_8 - t_2_5 - 500.000000 s_2_5 > -476.879000
Binary
s_1_1
s_2_1
s_1_2
s_2_2
s_1_3
s_2_3
s_1_4
s_2_4
s_1_5
s_2_5
s_1_6
s_2_6
s_1_7
s_2_7
s_1_8
s_2_8
u_1_1_2
u_2_1_2
u_1_1_3
u_2_1_3
u_1_1_4
u_2_1_4
u_1_1_5
u_2_1_5
u_1_1_7
u_2_1_7
u_1_2_1
u_2_2_1
u_1_2_3
u_2_2_3
u_1_2_4
u_2_2_4
u_1_2_5
u_2_2_5
u_1_2_6
u_2_2_6
u_1_3_1
u_2_3_1
u_1_3_2
u_2_3_2
u_1_3_5
u_2_3_5
u_1_3_6
u_2_3_6
u_1_4_1
u_2_4_1
u_1_4_2
u_2_4_2
u_1_4_5
u_2_4_5
u_1_4_6
u_2_4_6
u_1_5_1
u_2_5_1
u_1_5_2
u_2_5_2
u_1_5_3
u_2_5_3
u_1_5_4
u_2_5_4
u_1_6_2
u_2_6_2
u_1_6_3
u_2_6_3
u_1_6_4
u_2_6_4
u_1_6_7
u_2_6_7
u_1_7_1
u_2_7_1
u_1_7_6
u_2_7_6

End
